language Essence 1.3
letting nnodes be 80
letting nrings be 40
letting capacity be 40
letting demand be 
{{1, 2},
{1, 3},
{1, 4},
{1, 5},
{1, 6},
{1, 8},
{1, 10},
{1, 11},
{1, 13},
{1, 14},
{1, 16},
{1, 17},
{1, 19},
{1, 22},
{1, 25},
{1, 26},
{1, 27},
{1, 28},
{1, 29},
{1, 30},
{1, 31},
{1, 32},
{1, 33},
{1, 36},
{1, 37},
{1, 41},
{1, 42},
{1, 44},
{1, 45},
{1, 47},
{1, 48},
{1, 49},
{1, 50},
{1, 53},
{1, 56},
{1, 58},
{1, 60},
{1, 63},
{1, 64},
{1, 65},
{1, 66},
{1, 67},
{1, 69},
{1, 70},
{1, 71},
{1, 77},
{1, 78},
{1, 80},
{2, 3},
{2, 4},
{2, 6},
{2, 8},
{2, 9},
{2, 10},
{2, 12},
{2, 16},
{2, 17},
{2, 20},
{2, 21},
{2, 23},
{2, 24},
{2, 26},
{2, 28},
{2, 29},
{2, 30},
{2, 31},
{2, 32},
{2, 34},
{2, 38},
{2, 41},
{2, 42},
{2, 44},
{2, 45},
{2, 46},
{2, 48},
{2, 52},
{2, 53},
{2, 55},
{2, 57},
{2, 58},
{2, 60},
{2, 62},
{2, 63},
{2, 66},
{2, 68},
{2, 75},
{2, 76},
{2, 78},
{3, 5},
{3, 8},
{3, 15},
{3, 17},
{3, 22},
{3, 27},
{3, 29},
{3, 30},
{3, 33},
{3, 34},
{3, 36},
{3, 42},
{3, 46},
{3, 47},
{3, 48},
{3, 49},
{3, 53},
{3, 54},
{3, 55},
{3, 58},
{3, 59},
{3, 61},
{3, 64},
{3, 65},
{3, 66},
{3, 67},
{3, 69},
{3, 71},
{3, 74},
{3, 75},
{3, 76},
{3, 78},
{3, 79},
{4, 5},
{4, 8},
{4, 12},
{4, 13},
{4, 14},
{4, 15},
{4, 17},
{4, 18},
{4, 20},
{4, 21},
{4, 22},
{4, 23},
{4, 25},
{4, 26},
{4, 27},
{4, 28},
{4, 29},
{4, 35},
{4, 37},
{4, 39},
{4, 46},
{4, 48},
{4, 51},
{4, 53},
{4, 54},
{4, 55},
{4, 58},
{4, 59},
{4, 60},
{4, 61},
{4, 62},
{4, 65},
{4, 68},
{4, 69},
{4, 70},
{4, 71},
{4, 72},
{4, 73},
{4, 74},
{4, 77},
{4, 79},
{5, 10},
{5, 12},
{5, 13},
{5, 15},
{5, 16},
{5, 19},
{5, 20},
{5, 21},
{5, 22},
{5, 25},
{5, 27},
{5, 29},
{5, 31},
{5, 32},
{5, 37},
{5, 38},
{5, 40},
{5, 43},
{5, 46},
{5, 49},
{5, 51},
{5, 53},
{5, 54},
{5, 63},
{5, 64},
{5, 68},
{5, 70},
{5, 74},
{5, 80},
{6, 8},
{6, 11},
{6, 14},
{6, 15},
{6, 17},
{6, 18},
{6, 20},
{6, 21},
{6, 23},
{6, 26},
{6, 27},
{6, 28},
{6, 29},
{6, 31},
{6, 34},
{6, 36},
{6, 39},
{6, 41},
{6, 43},
{6, 45},
{6, 46},
{6, 47},
{6, 48},
{6, 49},
{6, 50},
{6, 51},
{6, 54},
{6, 55},
{6, 56},
{6, 59},
{6, 60},
{6, 62},
{6, 63},
{6, 65},
{6, 68},
{6, 73},
{6, 78},
{6, 79},
{7, 8},
{7, 9},
{7, 10},
{7, 11},
{7, 14},
{7, 15},
{7, 16},
{7, 21},
{7, 22},
{7, 26},
{7, 27},
{7, 28},
{7, 30},
{7, 31},
{7, 32},
{7, 33},
{7, 34},
{7, 35},
{7, 38},
{7, 40},
{7, 41},
{7, 43},
{7, 46},
{7, 47},
{7, 49},
{7, 55},
{7, 57},
{7, 58},
{7, 59},
{7, 63},
{7, 64},
{7, 65},
{7, 66},
{7, 69},
{7, 70},
{7, 71},
{7, 72},
{7, 73},
{7, 74},
{7, 76},
{7, 77},
{8, 9},
{8, 16},
{8, 17},
{8, 20},
{8, 23},
{8, 24},
{8, 26},
{8, 29},
{8, 30},
{8, 31},
{8, 32},
{8, 34},
{8, 36},
{8, 40},
{8, 41},
{8, 42},
{8, 44},
{8, 46},
{8, 47},
{8, 49},
{8, 52},
{8, 54},
{8, 55},
{8, 56},
{8, 58},
{8, 59},
{8, 60},
{8, 66},
{8, 67},
{8, 69},
{8, 71},
{8, 72},
{8, 73},
{8, 74},
{8, 75},
{8, 77},
{8, 78},
{9, 11},
{9, 13},
{9, 15},
{9, 18},
{9, 19},
{9, 22},
{9, 24},
{9, 26},
{9, 28},
{9, 30},
{9, 31},
{9, 33},
{9, 35},
{9, 37},
{9, 39},
{9, 42},
{9, 44},
{9, 45},
{9, 46},
{9, 48},
{9, 53},
{9, 55},
{9, 57},
{9, 58},
{9, 59},
{9, 61},
{9, 63},
{9, 64},
{9, 65},
{9, 73},
{9, 76},
{9, 77},
{10, 11},
{10, 12},
{10, 19},
{10, 20},
{10, 21},
{10, 22},
{10, 25},
{10, 27},
{10, 28},
{10, 29},
{10, 30},
{10, 32},
{10, 37},
{10, 38},
{10, 39},
{10, 41},
{10, 45},
{10, 47},
{10, 49},
{10, 50},
{10, 52},
{10, 53},
{10, 55},
{10, 57},
{10, 58},
{10, 59},
{10, 62},
{10, 66},
{10, 69},
{10, 70},
{10, 71},
{10, 72},
{10, 74},
{10, 76},
{10, 78},
{10, 80},
{11, 12},
{11, 15},
{11, 17},
{11, 18},
{11, 20},
{11, 21},
{11, 25},
{11, 26},
{11, 28},
{11, 29},
{11, 31},
{11, 32},
{11, 34},
{11, 37},
{11, 38},
{11, 39},
{11, 42},
{11, 43},
{11, 45},
{11, 47},
{11, 48},
{11, 49},
{11, 50},
{11, 52},
{11, 57},
{11, 60},
{11, 61},
{11, 63},
{11, 64},
{11, 67},
{11, 70},
{11, 72},
{11, 73},
{11, 75},
{11, 76},
{11, 80},
{12, 13},
{12, 15},
{12, 16},
{12, 18},
{12, 19},
{12, 20},
{12, 21},
{12, 30},
{12, 31},
{12, 32},
{12, 35},
{12, 36},
{12, 39},
{12, 40},
{12, 43},
{12, 48},
{12, 49},
{12, 50},
{12, 51},
{12, 55},
{12, 56},
{12, 58},
{12, 60},
{12, 61},
{12, 64},
{12, 66},
{12, 70},
{12, 73},
{12, 77},
{12, 80},
{13, 14},
{13, 15},
{13, 16},
{13, 17},
{13, 18},
{13, 19},
{13, 20},
{13, 22},
{13, 23},
{13, 28},
{13, 30},
{13, 32},
{13, 33},
{13, 35},
{13, 36},
{13, 37},
{13, 38},
{13, 40},
{13, 41},
{13, 42},
{13, 46},
{13, 48},
{13, 49},
{13, 53},
{13, 54},
{13, 57},
{13, 58},
{13, 59},
{13, 63},
{13, 64},
{13, 67},
{13, 68},
{13, 70},
{13, 72},
{13, 73},
{13, 74},
{13, 75},
{13, 77},
{13, 78},
{14, 18},
{14, 20},
{14, 21},
{14, 23},
{14, 24},
{14, 25},
{14, 26},
{14, 27},
{14, 28},
{14, 30},
{14, 31},
{14, 32},
{14, 33},
{14, 36},
{14, 38},
{14, 39},
{14, 41},
{14, 42},
{14, 46},
{14, 48},
{14, 51},
{14, 52},
{14, 53},
{14, 55},
{14, 56},
{14, 57},
{14, 60},
{14, 63},
{14, 65},
{14, 67},
{14, 69},
{14, 70},
{14, 75},
{14, 77},
{14, 79},
{14, 80},
{15, 16},
{15, 20},
{15, 21},
{15, 22},
{15, 25},
{15, 26},
{15, 28},
{15, 29},
{15, 31},
{15, 33},
{15, 38},
{15, 39},
{15, 41},
{15, 43},
{15, 50},
{15, 53},
{15, 56},
{15, 60},
{15, 61},
{15, 63},
{15, 65},
{15, 66},
{15, 67},
{15, 69},
{15, 70},
{15, 72},
{15, 73},
{15, 77},
{15, 78},
{15, 80},
{16, 17},
{16, 21},
{16, 25},
{16, 26},
{16, 27},
{16, 28},
{16, 30},
{16, 31},
{16, 32},
{16, 35},
{16, 36},
{16, 37},
{16, 38},
{16, 41},
{16, 43},
{16, 46},
{16, 49},
{16, 50},
{16, 51},
{16, 57},
{16, 58},
{16, 59},
{16, 60},
{16, 61},
{16, 64},
{16, 65},
{16, 66},
{16, 68},
{16, 69},
{16, 70},
{16, 74},
{16, 75},
{16, 76},
{16, 77},
{16, 78},
{17, 18},
{17, 19},
{17, 22},
{17, 24},
{17, 25},
{17, 27},
{17, 28},
{17, 29},
{17, 33},
{17, 34},
{17, 37},
{17, 38},
{17, 39},
{17, 41},
{17, 43},
{17, 44},
{17, 46},
{17, 47},
{17, 49},
{17, 50},
{17, 51},
{17, 52},
{17, 56},
{17, 58},
{17, 62},
{17, 63},
{17, 65},
{17, 66},
{17, 70},
{17, 71},
{17, 74},
{17, 75},
{17, 79},
{17, 80},
{18, 19},
{18, 23},
{18, 25},
{18, 26},
{18, 28},
{18, 30},
{18, 34},
{18, 36},
{18, 38},
{18, 41},
{18, 46},
{18, 49},
{18, 51},
{18, 58},
{18, 59},
{18, 63},
{18, 64},
{18, 65},
{18, 70},
{18, 74},
{18, 75},
{18, 76},
{18, 80},
{19, 23},
{19, 24},
{19, 25},
{19, 26},
{19, 28},
{19, 30},
{19, 31},
{19, 32},
{19, 35},
{19, 36},
{19, 37},
{19, 39},
{19, 40},
{19, 41},
{19, 42},
{19, 43},
{19, 50},
{19, 56},
{19, 58},
{19, 60},
{19, 61},
{19, 64},
{19, 66},
{19, 71},
{19, 74},
{19, 77},
{19, 78},
{19, 80},
{20, 21},
{20, 22},
{20, 23},
{20, 27},
{20, 29},
{20, 30},
{20, 33},
{20, 37},
{20, 44},
{20, 45},
{20, 46},
{20, 47},
{20, 53},
{20, 57},
{20, 58},
{20, 59},
{20, 66},
{20, 70},
{20, 73},
{20, 76},
{20, 77},
{20, 79},
{21, 26},
{21, 27},
{21, 29},
{21, 33},
{21, 34},
{21, 36},
{21, 38},
{21, 43},
{21, 44},
{21, 45},
{21, 46},
{21, 47},
{21, 55},
{21, 56},
{21, 57},
{21, 61},
{21, 64},
{21, 65},
{21, 67},
{21, 68},
{21, 70},
{21, 71},
{21, 74},
{21, 75},
{21, 76},
{21, 78},
{21, 79},
{21, 80},
{22, 23},
{22, 24},
{22, 25},
{22, 28},
{22, 33},
{22, 34},
{22, 35},
{22, 36},
{22, 37},
{22, 45},
{22, 47},
{22, 48},
{22, 49},
{22, 50},
{22, 51},
{22, 52},
{22, 53},
{22, 55},
{22, 56},
{22, 59},
{22, 62},
{22, 63},
{22, 64},
{22, 66},
{22, 70},
{22, 72},
{22, 73},
{22, 74},
{22, 76},
{22, 79},
{23, 26},
{23, 27},
{23, 28},
{23, 29},
{23, 32},
{23, 38},
{23, 39},
{23, 40},
{23, 41},
{23, 43},
{23, 44},
{23, 46},
{23, 48},
{23, 49},
{23, 51},
{23, 52},
{23, 54},
{23, 55},
{23, 56},
{23, 57},
{23, 58},
{23, 62},
{23, 63},
{23, 64},
{23, 67},
{23, 68},
{23, 71},
{23, 73},
{23, 76},
{23, 77},
{23, 78},
{23, 79},
{24, 25},
{24, 26},
{24, 28},
{24, 32},
{24, 33},
{24, 35},
{24, 37},
{24, 38},
{24, 40},
{24, 43},
{24, 49},
{24, 51},
{24, 52},
{24, 53},
{24, 54},
{24, 58},
{24, 66},
{24, 69},
{24, 70},
{24, 71},
{24, 73},
{24, 74},
{24, 77},
{24, 78},
{25, 28},
{25, 29},
{25, 31},
{25, 32},
{25, 39},
{25, 40},
{25, 41},
{25, 42},
{25, 44},
{25, 45},
{25, 48},
{25, 49},
{25, 56},
{25, 58},
{25, 62},
{25, 64},
{25, 65},
{25, 66},
{25, 72},
{25, 73},
{25, 74},
{25, 76},
{25, 80},
{26, 31},
{26, 32},
{26, 33},
{26, 34},
{26, 38},
{26, 41},
{26, 42},
{26, 45},
{26, 46},
{26, 49},
{26, 50},
{26, 51},
{26, 54},
{26, 55},
{26, 59},
{26, 61},
{26, 63},
{26, 66},
{26, 68},
{26, 70},
{26, 75},
{26, 77},
{26, 80},
{27, 31},
{27, 33},
{27, 34},
{27, 39},
{27, 41},
{27, 44},
{27, 45},
{27, 46},
{27, 51},
{27, 52},
{27, 53},
{27, 56},
{27, 59},
{27, 60},
{27, 62},
{27, 63},
{27, 65},
{27, 66},
{27, 68},
{27, 69},
{27, 70},
{27, 72},
{27, 73},
{27, 76},
{27, 79},
{27, 80},
{28, 29},
{28, 30},
{28, 31},
{28, 35},
{28, 36},
{28, 38},
{28, 39},
{28, 41},
{28, 44},
{28, 46},
{28, 47},
{28, 48},
{28, 56},
{28, 57},
{28, 59},
{28, 60},
{28, 63},
{28, 64},
{28, 65},
{28, 69},
{28, 72},
{28, 74},
{28, 78},
{28, 80},
{29, 31},
{29, 32},
{29, 34},
{29, 35},
{29, 37},
{29, 38},
{29, 42},
{29, 46},
{29, 48},
{29, 49},
{29, 51},
{29, 53},
{29, 55},
{29, 56},
{29, 57},
{29, 58},
{29, 59},
{29, 61},
{29, 65},
{29, 68},
{29, 69},
{29, 70},
{29, 71},
{29, 72},
{29, 73},
{29, 76},
{29, 77},
{29, 78},
{30, 32},
{30, 34},
{30, 35},
{30, 36},
{30, 37},
{30, 39},
{30, 40},
{30, 41},
{30, 43},
{30, 46},
{30, 49},
{30, 51},
{30, 52},
{30, 53},
{30, 55},
{30, 58},
{30, 59},
{30, 63},
{30, 65},
{30, 72},
{30, 73},
{30, 75},
{30, 77},
{30, 80},
{31, 32},
{31, 33},
{31, 35},
{31, 36},
{31, 37},
{31, 38},
{31, 40},
{31, 44},
{31, 45},
{31, 48},
{31, 53},
{31, 54},
{31, 55},
{31, 58},
{31, 60},
{31, 61},
{31, 62},
{31, 63},
{31, 65},
{31, 70},
{31, 71},
{31, 72},
{31, 75},
{31, 76},
{31, 80},
{32, 33},
{32, 35},
{32, 37},
{32, 39},
{32, 41},
{32, 48},
{32, 49},
{32, 51},
{32, 56},
{32, 59},
{32, 60},
{32, 63},
{32, 64},
{32, 65},
{32, 66},
{32, 68},
{32, 70},
{32, 74},
{32, 76},
{32, 77},
{32, 79},
{33, 36},
{33, 38},
{33, 39},
{33, 40},
{33, 41},
{33, 43},
{33, 45},
{33, 48},
{33, 49},
{33, 53},
{33, 55},
{33, 56},
{33, 63},
{33, 64},
{33, 65},
{33, 66},
{33, 68},
{33, 69},
{33, 72},
{33, 74},
{33, 77},
{33, 79},
{34, 35},
{34, 36},
{34, 38},
{34, 39},
{34, 42},
{34, 45},
{34, 46},
{34, 47},
{34, 48},
{34, 53},
{34, 54},
{34, 55},
{34, 61},
{34, 64},
{34, 67},
{34, 69},
{34, 71},
{34, 72},
{34, 76},
{34, 77},
{34, 78},
{34, 80},
{35, 36},
{35, 39},
{35, 43},
{35, 44},
{35, 48},
{35, 53},
{35, 54},
{35, 55},
{35, 56},
{35, 57},
{35, 58},
{35, 62},
{35, 67},
{35, 68},
{35, 69},
{35, 70},
{35, 72},
{35, 73},
{35, 76},
{35, 79},
{35, 80},
{36, 38},
{36, 39},
{36, 40},
{36, 41},
{36, 42},
{36, 43},
{36, 44},
{36, 46},
{36, 48},
{36, 53},
{36, 54},
{36, 55},
{36, 59},
{36, 64},
{36, 66},
{36, 71},
{36, 73},
{36, 75},
{37, 39},
{37, 42},
{37, 43},
{37, 44},
{37, 45},
{37, 47},
{37, 48},
{37, 49},
{37, 51},
{37, 52},
{37, 53},
{37, 57},
{37, 60},
{37, 61},
{37, 62},
{37, 66},
{37, 67},
{37, 68},
{37, 73},
{37, 76},
{37, 77},
{37, 78},
{37, 79},
{37, 80},
{38, 39},
{38, 45},
{38, 48},
{38, 49},
{38, 52},
{38, 55},
{38, 57},
{38, 58},
{38, 61},
{38, 62},
{38, 63},
{38, 64},
{38, 65},
{38, 66},
{38, 67},
{38, 69},
{38, 71},
{38, 74},
{38, 79},
{38, 80},
{39, 40},
{39, 41},
{39, 42},
{39, 43},
{39, 45},
{39, 46},
{39, 47},
{39, 49},
{39, 50},
{39, 53},
{39, 56},
{39, 61},
{39, 63},
{39, 66},
{39, 67},
{39, 68},
{39, 70},
{39, 71},
{39, 75},
{40, 42},
{40, 43},
{40, 44},
{40, 45},
{40, 47},
{40, 48},
{40, 49},
{40, 52},
{40, 54},
{40, 55},
{40, 56},
{40, 58},
{40, 59},
{40, 60},
{40, 61},
{40, 62},
{40, 67},
{40, 68},
{40, 70},
{40, 74},
{40, 78},
{40, 80},
{41, 42},
{41, 43},
{41, 45},
{41, 46},
{41, 47},
{41, 48},
{41, 49},
{41, 50},
{41, 51},
{41, 52},
{41, 53},
{41, 54},
{41, 58},
{41, 62},
{41, 63},
{41, 65},
{41, 67},
{41, 69},
{41, 72},
{41, 73},
{41, 74},
{41, 75},
{41, 76},
{41, 77},
{41, 78},
{41, 79},
{42, 43},
{42, 44},
{42, 45},
{42, 47},
{42, 49},
{42, 51},
{42, 53},
{42, 55},
{42, 59},
{42, 61},
{42, 62},
{42, 64},
{42, 65},
{42, 66},
{42, 68},
{42, 73},
{42, 76},
{42, 77},
{42, 78},
{43, 44},
{43, 45},
{43, 47},
{43, 48},
{43, 49},
{43, 52},
{43, 54},
{43, 55},
{43, 56},
{43, 58},
{43, 60},
{43, 62},
{43, 64},
{43, 67},
{43, 70},
{43, 71},
{43, 72},
{43, 76},
{43, 78},
{44, 46},
{44, 48},
{44, 49},
{44, 52},
{44, 54},
{44, 56},
{44, 59},
{44, 60},
{44, 61},
{44, 62},
{44, 64},
{44, 65},
{44, 67},
{44, 69},
{44, 71},
{44, 75},
{44, 77},
{44, 79},
{44, 80},
{45, 46},
{45, 47},
{45, 48},
{45, 54},
{45, 58},
{45, 59},
{45, 61},
{45, 64},
{45, 65},
{45, 66},
{45, 67},
{45, 68},
{45, 70},
{45, 73},
{45, 75},
{45, 77},
{45, 80},
{46, 47},
{46, 51},
{46, 53},
{46, 54},
{46, 55},
{46, 56},
{46, 58},
{46, 61},
{46, 62},
{46, 63},
{46, 70},
{46, 72},
{46, 73},
{46, 74},
{46, 75},
{46, 76},
{46, 79},
{46, 80},
{47, 48},
{47, 50},
{47, 52},
{47, 54},
{47, 55},
{47, 57},
{47, 60},
{47, 62},
{47, 63},
{47, 65},
{47, 67},
{47, 69},
{47, 74},
{47, 75},
{47, 76},
{47, 79},
{47, 80},
{48, 49},
{48, 52},
{48, 58},
{48, 61},
{48, 63},
{48, 64},
{48, 65},
{48, 66},
{48, 68},
{48, 71},
{48, 72},
{48, 73},
{48, 74},
{48, 75},
{49, 50},
{49, 51},
{49, 55},
{49, 56},
{49, 58},
{49, 59},
{49, 60},
{49, 62},
{49, 64},
{49, 66},
{49, 67},
{49, 71},
{49, 72},
{49, 73},
{49, 74},
{49, 77},
{49, 78},
{49, 79},
{49, 80},
{50, 53},
{50, 54},
{50, 55},
{50, 56},
{50, 57},
{50, 58},
{50, 59},
{50, 60},
{50, 61},
{50, 64},
{50, 66},
{50, 67},
{50, 68},
{50, 69},
{50, 70},
{50, 71},
{50, 72},
{50, 73},
{50, 74},
{50, 76},
{50, 78},
{50, 79},
{51, 52},
{51, 55},
{51, 57},
{51, 58},
{51, 63},
{51, 65},
{51, 66},
{51, 68},
{51, 73},
{51, 75},
{51, 76},
{51, 79},
{51, 80},
{52, 53},
{52, 56},
{52, 57},
{52, 59},
{52, 61},
{52, 66},
{52, 67},
{52, 68},
{52, 70},
{52, 71},
{52, 74},
{52, 76},
{52, 79},
{52, 80},
{53, 58},
{53, 60},
{53, 61},
{53, 63},
{53, 66},
{53, 68},
{53, 70},
{53, 71},
{53, 72},
{53, 74},
{53, 75},
{53, 76},
{53, 79},
{54, 55},
{54, 58},
{54, 59},
{54, 61},
{54, 63},
{54, 65},
{54, 70},
{54, 77},
{54, 78},
{54, 79},
{54, 80},
{55, 56},
{55, 58},
{55, 60},
{55, 63},
{55, 66},
{55, 68},
{55, 69},
{55, 71},
{55, 72},
{55, 73},
{55, 75},
{55, 76},
{55, 78},
{55, 79},
{56, 57},
{56, 61},
{56, 63},
{56, 65},
{56, 67},
{56, 70},
{56, 71},
{56, 74},
{56, 75},
{56, 80},
{57, 59},
{57, 60},
{57, 61},
{57, 62},
{57, 63},
{57, 64},
{57, 66},
{57, 67},
{57, 68},
{57, 69},
{57, 74},
{57, 75},
{57, 76},
{57, 79},
{57, 80},
{58, 59},
{58, 69},
{58, 70},
{58, 75},
{58, 76},
{58, 80},
{59, 60},
{59, 63},
{59, 64},
{59, 69},
{59, 70},
{59, 71},
{59, 72},
{59, 73},
{59, 74},
{59, 76},
{59, 79},
{60, 62},
{60, 63},
{60, 66},
{60, 67},
{60, 69},
{60, 71},
{60, 73},
{60, 75},
{60, 77},
{60, 78},
{61, 62},
{61, 67},
{61, 70},
{61, 75},
{61, 76},
{61, 79},
{61, 80},
{62, 63},
{62, 65},
{62, 66},
{62, 68},
{62, 69},
{62, 73},
{62, 74},
{62, 76},
{62, 77},
{62, 79},
{62, 80},
{63, 65},
{63, 66},
{63, 69},
{63, 71},
{63, 72},
{63, 73},
{63, 74},
{63, 75},
{63, 76},
{63, 77},
{63, 78},
{63, 79},
{64, 65},
{64, 69},
{64, 71},
{64, 73},
{64, 77},
{64, 78},
{64, 80},
{65, 67},
{65, 69},
{65, 70},
{65, 71},
{65, 74},
{65, 75},
{65, 77},
{65, 78},
{65, 79},
{66, 67},
{66, 68},
{66, 72},
{66, 75},
{66, 76},
{66, 80},
{67, 68},
{67, 73},
{67, 74},
{67, 75},
{67, 76},
{67, 77},
{67, 79},
{68, 69},
{68, 70},
{68, 71},
{68, 73},
{68, 77},
{68, 79},
{69, 70},
{69, 72},
{69, 73},
{69, 75},
{69, 77},
{69, 78},
{69, 80},
{70, 71},
{70, 73},
{70, 74},
{70, 76},
{70, 80},
{71, 72},
{71, 74},
{71, 78},
{71, 80},
{72, 74},
{72, 76},
{72, 79},
{72, 80},
{73, 77},
{74, 75},
{74, 76},
{74, 80},
{75, 76},
{75, 80},
{76, 78},
{76, 79},
{77, 80},
{78, 79},
{78, 80}}
